GLPSOL: GLPK LP/MIP Solver, v4.55
Parameter(s) specified in the command line:
 -m projetnprim.mod -d d05100.DAT
Reading model section from projetnprim.mod...
79 lines were read
Reading data section from d05100.DAT...
d05100.DAT:20: warning: unexpected end of file; missing end statement inserted
20 lines were read
Generating ram...
Generating affect...
Generating decision...
Generating decisionTotale...
Generating obj...
Model has been successfully generated
GLPK Simplex Optimizer, v4.55
207 rows, 600 columns, 2200 non-zeros
Preprocessing...
206 rows, 600 columns, 1700 non-zeros
Scaling...
 A: min|aij| = 1.000e+000  max|aij| = 1.000e+002  ratio = 1.000e+002
GM: min|aij| = 3.642e-001  max|aij| = 2.746e+000  ratio = 7.539e+000
EQ: min|aij| = 1.343e-001  max|aij| = 1.000e+000  ratio = 7.447e+000
Constructing initial basis...
Size of triangular part is 206
      0: obj =  6.237000000e+003  infeas = 3.048e+002 (0)
*   171: obj =  8.347469151e+003  infeas = 0.000e+000 (0)
*   295: obj =  6.229973646e+003  infeas = 0.000e+000 (0)
OPTIMAL LP SOLUTION FOUND
Time used:   0.0 secs
Memory used: 1.2 Mb (1281350 bytes)
sum=6229.973646
nbTaches=100.000000
nbProcesseurs=5.000000
nbTacheMin=99.000000
affectation 
0.000000 0.000000 0.000000 1.000000 0.000000 
0.000000 0.000000 1.000000 0.000000 0.000000 
0.000000 0.000000 1.000000 0.000000 0.000000 
1.000000 0.000000 0.000000 0.000000 0.000000 
0.000000 1.000000 0.000000 0.000000 0.000000 
0.000000 0.000000 0.000000 0.000000 1.000000 
0.000000 1.000000 0.000000 0.000000 0.000000 
0.000000 0.000000 1.000000 0.000000 0.000000 
0.000000 0.000000 0.000000 0.000000 1.000000 
0.000000 0.000000 1.000000 0.000000 0.000000 
0.000000 0.000000 0.000000 1.000000 0.000000 
1.000000 0.000000 0.000000 0.000000 0.000000 
0.000000 1.000000 0.000000 0.000000 0.000000 
0.000000 0.000000 1.000000 0.000000 0.000000 
0.000000 1.000000 0.000000 0.000000 0.000000 
0.000000 0.000000 0.000000 0.000000 1.000000 
0.000000 1.000000 0.000000 0.000000 0.000000 
0.000000 0.000000 0.000000 1.000000 0.000000 
0.000000 1.000000 0.000000 0.000000 0.000000 
0.784261 0.000000 0.000000 0.000000 0.215739 
0.000000 0.000000 1.000000 0.000000 0.000000 
0.000000 0.000000 0.000000 1.000000 0.000000 
1.000000 0.000000 0.000000 0.000000 0.000000 
0.000000 0.000000 1.000000 0.000000 0.000000 
1.000000 0.000000 0.000000 0.000000 0.000000 
0.000000 0.000000 1.000000 0.000000 0.000000 
1.000000 0.000000 0.000000 0.000000 0.000000 
0.000000 0.000000 1.000000 0.000000 0.000000 
0.000000 0.000000 0.000000 1.000000 0.000000 
0.000000 0.000000 0.000000 1.000000 0.000000 
0.000000 1.000000 0.000000 0.000000 0.000000 
0.000000 0.000000 0.000000 0.000000 1.000000 
0.000000 0.000000 0.000000 0.000000 1.000000 
1.000000 0.000000 0.000000 0.000000 0.000000 
0.000000 0.000000 0.000000 0.000000 1.000000 
0.000000 1.000000 0.000000 0.000000 0.000000 
0.000000 0.000000 0.000000 1.000000 0.000000 
0.000000 0.000000 0.000000 1.000000 0.000000 
0.000000 1.000000 0.000000 0.000000 0.000000 
0.000000 0.000000 0.000000 1.000000 0.000000 
0.000000 0.000000 0.000000 0.000000 1.000000 
0.000000 0.000000 0.000000 1.000000 0.000000 
0.000000 0.000000 1.000000 0.000000 0.000000 
0.000000 0.000000 1.000000 0.000000 0.000000 
1.000000 0.000000 0.000000 0.000000 0.000000 
1.000000 0.000000 0.000000 0.000000 0.000000 
0.000000 0.000000 0.000000 0.000000 1.000000 
0.000000 1.000000 0.000000 0.000000 0.000000 
1.000000 0.000000 0.000000 0.000000 0.000000 
0.375000 0.000000 0.625000 0.000000 0.000000 
0.000000 0.000000 0.000000 0.000000 1.000000 
0.000000 1.000000 0.000000 0.000000 0.000000 
0.000000 0.000000 0.000000 0.000000 1.000000 
1.000000 0.000000 0.000000 0.000000 0.000000 
0.000000 0.000000 0.000000 0.000000 1.000000 
0.000000 0.000000 0.000000 1.000000 0.000000 
0.000000 1.000000 0.000000 0.000000 0.000000 
0.000000 0.000000 0.000000 0.000000 1.000000 
0.000000 0.000000 0.000000 0.000000 1.000000 
0.000000 1.000000 0.000000 0.000000 0.000000 
0.000000 1.000000 0.000000 0.000000 0.000000 
0.000000 1.000000 0.000000 0.000000 0.000000 
1.000000 0.000000 0.000000 0.000000 0.000000 
0.000000 0.000000 1.000000 0.000000 0.000000 
0.000000 0.000000 0.000000 1.000000 0.000000 
1.000000 0.000000 0.000000 0.000000 0.000000 
0.000000 0.000000 1.000000 0.000000 0.000000 
0.000000 0.354839 0.000000 0.645161 0.000000 
1.000000 0.000000 0.000000 0.000000 0.000000 
0.000000 0.000000 0.000000 1.000000 0.000000 
0.000000 0.000000 0.000000 1.000000 0.000000 
1.000000 0.000000 0.000000 0.000000 0.000000 
0.000000 0.000000 0.000000 0.000000 1.000000 
0.000000 1.000000 0.000000 0.000000 0.000000 
0.000000 0.000000 0.000000 1.000000 0.000000 
0.000000 0.000000 1.000000 0.000000 0.000000 
1.000000 0.000000 0.000000 0.000000 0.000000 
0.000000 0.000000 0.000000 0.000000 1.000000 
0.000000 0.000000 0.000000 0.000000 1.000000 
0.000000 1.000000 0.000000 0.000000 0.000000 
0.000000 0.000000 0.000000 1.000000 0.000000 
1.000000 0.000000 0.000000 0.000000 0.000000 
1.000000 0.000000 0.000000 0.000000 0.000000 
0.000000 0.000000 0.000000 0.000000 1.000000 
0.861649 0.000000 0.000000 0.138351 0.000000 
0.134147 0.000000 0.000000 0.000000 0.865853 
0.000000 0.000000 0.000000 1.000000 0.000000 
0.000000 0.000000 0.000000 0.000000 1.000000 
0.000000 1.000000 0.000000 0.000000 0.000000 
0.000000 1.000000 0.000000 0.000000 0.000000 
0.000000 0.000000 0.000000 0.000000 1.000000 
0.000000 0.000000 1.000000 0.000000 0.000000 
0.000000 0.000000 0.000000 0.000000 0.000000 
0.000000 0.000000 0.000000 0.000000 1.000000 
1.000000 0.000000 0.000000 0.000000 0.000000 
0.000000 1.000000 0.000000 0.000000 0.000000 
0.000000 0.000000 0.000000 1.000000 0.000000 
0.000000 0.000000 0.000000 1.000000 0.000000 
0.000000 0.000000 0.000000 1.000000 0.000000 
0.000000 1.000000 0.000000 0.000000 0.000000 
ram dispo 
798 
760 
810 
824 
868 
cout 
83 45 104 90 45 
93 60 99 81 22 
84 84 77 96 33 
45 71 57 41 33 
60 64 32 92 54 
54 24 104 63 66 
43 53 84 99 110 
67 23 11 22 23 
75 26 13 95 80 
43 29 60 55 42 
31 58 41 55 30 
91 78 24 41 114 
72 22 58 55 28 
15 64 51 93 72 
41 29 34 81 75 
85 86 97 86 92 
70 69 40 13 48 
99 72 98 87 107 
37 72 18 46 23 
7 59 110 109 68 
97 67 74 91 72 
107 83 112 91 110 
25 14 47 111 45 
40 10 74 13 74 
62 25 28 35 34 
86 47 62 28 45 
83 85 95 51 58 
8 66 72 53 90 
84 87 117 59 96 
88 79 42 78 10 
42 34 78 27 53 
53 14 31 32 37 
75 101 35 45 57 
56 103 28 18 30 
48 99 15 74 82 
77 96 60 82 87 
54 65 113 8 38 
28 90 23 50 70 
34 85 35 85 40 
89 44 79 18 28 
99 30 83 56 89 
57 80 62 80 76 
17 22 24 29 82 
44 87 25 78 51 
51 25 52 15 36 
31 39 84 75 55 
47 3 33 83 81 
96 97 43 79 20 
99 104 42 94 85 
24 22 31 72 82 
8 92 116 29 90 
16 90 51 34 102 
36 10 14 18 40 
83 52 42 60 21 
89 87 49 30 25 
100 119 98 67 31 
43 62 57 73 85 
100 13 53 59 90 
44 114 20 92 49 
27 70 114 30 72 
52 77 82 55 54 
17 86 98 21 47 
99 92 70 54 102 
62 113 31 93 86 
42 45 65 100 40 
38 47 46 76 61 
15 71 56 73 26 
7 44 81 90 85 
97 74 32 50 38 
47 26 85 88 70 
21 91 92 28 16 
91 49 14 35 63 
99 35 56 12 37 
95 65 74 29 76 
111 38 52 21 53 
42 95 76 97 36 
95 12 63 83 47 
30 33 22 23 112 
78 92 83 25 61 
49 80 95 31 23 
96 82 82 80 107 
75 111 99 81 17 
45 77 58 9 39 
113 86 80 75 40 
63 66 3 12 56 
48 60 82 75 27 
19 112 108 92 36 
75 95 89 113 54 
92 18 94 24 26 
88 99 32 77 39 
27 102 93 49 57 
102 24 6 77 46 
87 23 51 76 49 
15 96 22 45 43 
64 42 50 56 45 
17 78 18 9 35 
54 40 38 41 26 
47 74 97 85 61 
44 81 55 61 34 
91 87 74 88 63 
demande ram 
28 56 9 15 65 
16 51 10 37 94 
29 27 26 18 85 
57 33 56 77 70 
46 40 83 28 55 
58 82 9 46 36 
66 50 31 21 9 
42 85 92 89 93 
36 95 90 16 26 
74 84 44 57 76 
83 50 65 48 88 
11 33 86 80 1 
38 80 50 55 81 
89 40 51 20 38 
76 72 76 32 43 
24 34 7 17 9 
40 34 72 93 70 
7 37 22 18 7 
81 30 97 61 79 
99 59 11 10 42 
6 42 27 25 40 
6 34 7 14 8 
78 94 63 8 59 
68 100 33 92 42 
44 86 83 79 77 
35 64 48 86 73 
18 25 24 58 43 
98 47 32 66 22 
30 22 3 46 22 
19 42 65 26 96 
61 67 42 83 67 
65 100 79 83 67 
32 11 80 76 45 
50 18 80 96 75 
62 8 94 42 21 
32 8 55 29 23 
64 44 6 95 69 
91 21 88 51 39 
87 21 84 29 75 
26 72 28 85 74 
12 86 36 58 14 
53 35 49 22 44 
95 82 80 78 29 
65 23 80 43 55 
51 94 63 87 65 
74 80 33 42 63 
61 99 76 30 27 
22 13 68 37 91 
7 9 60 15 25 
78 99 72 36 34 
98 29 2 77 14 
86 18 69 77 19 
78 97 90 88 63 
21 49 59 54 83 
28 27 68 87 80 
9 2 6 34 81 
72 39 62 32 18 
8 99 53 49 15 
71 1 85 23 53 
83 31 5 80 45 
67 24 21 61 58 
97 20 18 91 73 
12 20 39 65 15 
51 3 70 20 35 
59 76 48 5 71 
68 73 68 39 46 
90 45 52 39 78 
98 62 39 21 35 
5 42 73 55 83 
69 89 36 22 46 
95 30 19 75 94 
14 70 99 76 50 
15 81 55 96 67 
19 38 43 76 35 
2 67 57 84 54 
77 16 25 15 78 
11 96 53 24 57 
88 80 85 96 2 
28 23 38 91 42 
61 22 23 88 91 
12 24 27 23 12 
26 9 13 23 91 
56 33 57 96 82 
2 29 40 40 61 
41 39 100 90 62 
58 58 31 45 75 
84 6 10 13 76 
31 21 25 7 47 
29 83 23 93 75 
26 4 72 30 62 
75 8 16 63 44 
13 84 95 40 67 
26 84 62 41 61 
91 25 87 64 61 
45 77 68 55 71 
99 30 97 98 72 
55 66 66 64 79 
74 40 13 16 56 
63 31 52 42 87 
17 14 27 14 57 
Model has been successfully processed
